120 150

56
52
54
51
42
48
49
53
45
55
51
59
44
45
45
54
41
55
54
51
54
56
59
50
40
40
49
50
51
59
44
58
51
41
51
47
58
41
41
48
54
48
45
60
59
45
41
50
57
53
56
53
54
52
53
40
56
41
60
47
54
47
44
54
49
41
56
60
50
43
50
60
60
49
59
47
58
40
45
57
47
53
54
47
40
40
52
49
51
47
57
52
58
58
56
47
50
47
56
58
50
53
48
53
41
44
54
58
49
40
44
50
42
43
41
42
50
56
59
60